c turning on binary mode checking
c parsing input formula with 202048 variables and 780975 clauses
c finished parsing, read 17288195 bytes from proof file
c detected empty clause; start verification via backward checking
c 12777 of 780975 clauses in core                            
c 16607 of 461611 lemmas in core using 105341 resolution steps
c 0 RAT lemmas in core; 905 redundant literals in core lemmas
s VERIFIED
c verification time: 2.234 seconds
